c 2 __LINUXTHREADS_OLD__
c 4 __UCLIBC_HAS_GNU_GLOB__
c 1 __UCLIBC_HAS_THREADS_NATIVE__
c 5 __UCLIBC_HAS_GLOB__
c 3 __UCLIBC_HAS_LFS__
c 7 __LINUXTHREADS_NEW__
c 6 __UCLIBC_HAS_THREADS__
p cnf 7 1
1 -3 -5 2 4 -6 7 1
